
Gurobi 6.5.2 (linux64) logging started Wed Mar 15 12:47:59 2017


Gurobi 6.5.2 (linux64) logging started Wed Mar 15 12:47:59 2017

Optimize a model with 101 rows, 908 columns and 1817 nonzeros
Coefficient statistics:
  Matrix range    [1e+00, 2e+00]
  Objective range [2e+00, 1e+02]
  Bounds range    [1e+00, 1e+00]
  RHS range       [1e+00, 1e+00]
Presolve removed 51 rows and 50 columns
Presolve time: 0.00s
Presolved: 50 rows, 858 columns, 1716 nonzeros
Variable types: 0 continuous, 858 integer (858 binary)

Root relaxation: objective 7.370000e+02, 74 iterations, 0.00 seconds

    Nodes    |    Current Node    |     Objective Bounds      |     Work
 Expl Unexpl |  Obj  Depth IntInf | Incumbent    BestBd   Gap | It/Node Time

     0     0  737.00000    0    6          -  737.00000      -     -    0s
     0     0  738.50000    0    6          -  738.50000      -     -    0s
     0     0  739.25000    0   17          -  739.25000      -     -    0s
     0     0  740.25000    0   10          -  740.25000      -     -    0s
     0     0  740.50000    0   10          -  740.50000      -     -    0s
     0     0  740.50000    0   10          -  740.50000      -     -    0s
     0     2  747.66667    0   18          -  747.66667      -     -    0s
*  177   143              14     769.0000000  749.00000  2.60%   3.0    0s
H  699   213                     765.0000000  750.00000  1.96%   3.7    0s
H  789   104                     757.0000000  750.00000  0.92%   3.6    0s
*  837    68               7     755.0000000  750.50000  0.60%   3.5    0s
H  996     0                     753.0000000  751.00000  0.27%   3.4    0s

Cutting planes:
  MIR: 1
  Zero half: 5
  Lazy constraints: 51

Explored 1030 nodes (3554 simplex iterations) in 0.13 seconds
Thread count was 8 (of 8 available processors)

Optimal solution found (tolerance 1.00e-04)
Best objective 7.530000000000e+02, best bound 7.530000000000e+02, gap 0.0%
